K-Points
 0
Monkhorst Pack
 21 21 21
 0  0  0
